%chk=@CHK
%mem=1800mb
%nproc=4
#P RHF/6-311++G** 6D Freq(HPModes) IOP(7/33=1) IOP(6/7=3)
# SCF(xqc,novaracc,conver=11) nosymm

Finite Field computations

0 1
@DATA
